scripts/L1data/localhap/group3.lp.sol
Optimal - objective value 54.61107500
      3 x30                    1               15.840607
      4 x31                    1               15.840607
      5 x32                    1               15.840607
      6 x33                    1               15.840607
      7 x34                    1               15.840607
      8 x35                    1               15.840607
     10 x37                    1               15.840607
     14 x41                   30                       0
     17 x44                   30                       0
     21 x48                 0.05                       0
     23 x50                 0.05                       0
     25 x52                 0.05                       0
     27 x54                 0.05                       0
     28 x55                 0.05                       0
     29 x56                 0.05                       0
     30 x57                 0.05                       0
     31 x58                 0.05                       0
     32 x59                 0.05                       0
     34 x61                 0.05                       0
     39 x0                     1                       0
     41 x16                    1                -11.2659
     43 x14                    1                -11.2659
     44 x1                     2                 11.2659
     45 x12                    1                -11.2659
     46 x10                    1                -11.2659
     47 x15                    1                -11.2659
     48 x2                     1                       0
     50 x3                     1                       0
     51 x19                    1                -11.2659
     53 x17                    1                -11.2659
     54 x4                     2                 11.2659
     55 x8                     1                -11.2659
     56 x18                    1                -11.2659
     57 x5                     1                       0
     59 x6                     1                       0
     60 x21                    1                -11.2659
     62 x7                     1                       0
     63 x24                    1               11.284676
     64 x26                    1               11.284676
     65 x28                    1               11.284676
